50
21 90 168 126 42 27 81 189 36 72 189 63 126 105 90 126 90 81 126 126 42 189 9 27 105 210 105 147 36 36 210 21 72 63 42 9 81 72 21 90 45 63 63 105 36 84 21 168 63 210 
48 170 384 288 96 51 153 432 68 136 432 119 288 240 170 288 170 153 288 288 96 432 17 51 240 480 240 336 68 68 480 48 136 144 96 17 153 136 48 170 85 119 144 240 68 192 48 384 144 480 
2187
